-99 -99 000 000 -99 -99 000 -99 -99 -99 -99 -99 -99 000 000 -99 -99 -99 -99 -99 000 000 000 -99 000 -99 -99 -99 -99 -99 -99
-99 -99 000 000 000 -99 000 -99 -99 -99 -99 -99 -99 000 000 000 -99 -99 -99 -99 000 000 000 000 000 000 -99 -99 -99 -99 -99
-99 000 000 000 000 000 000 000 -99 -99 -99 -99 -99 -99 000 000 -99 -99 -99 000 000 -99 000 000 000 000 -99 000 -99 -99 -99
000 -99 000 000 000 000 000 000 -99 -99 -99 -99 -99 -99 -99 -99 -99 -99 -99 000 000 -99 000 000 000 000 -99 000 -99 -99 -99
000 000 000 000 000 000 000 000 000 000 -99 -99 -99 -99 -99 -99 -99 -99 -99 -99 000 000 000 000 000 000 000 -99 -99 -99 -99
000 000 000 000 000 000 000 000 000 000 -99 -99 000 -99 -99 -99 -99 -99 -99 -99 000 000 000 000 000 000 -99 -99 -99 -99 -99
000 000 000 000 000 000 000 000 -99 000 -99 -99 -99 000 -99 000 000 000 -99 -99 -99 000 000 000 000 000 -99 -99 -99 -99 -99
000 000 000 000 000 -99 000 000 000 000 -99 -99 -99 000 -99 000 000 000 -99 -99 -99 -99 000 000 000 -99 -99 -99 -99 -99 000
000 000 000 000 000 000 000 -99 000 000 -99 -99 -99 -99 -99 -99 000 000 -99 -99 000 000 000 -99 000 -99 -99 000 -99 -99 000
000 000 000 000 000 000 000 000 000 000 -99 000 -99 -99 -99 -99 000 000 000 -99 000 000 -99 -99 -99 000 000 000 000 000 -99
000 000 000 000 000 000 000 000 000 000 000 000 000 -99 -99 -99 000 000 000 000 -99 000 -99 -99 000 -99 000 000 000 000 000
000 000 000 000 000 000 000 000 000 000 000 000 000 -99 -99 000 000 000 000 000 -99 000 -99 011 000 -99 -99 000 000 000 000
000 000 000 000 000 000 000 000 000 000 000 000 000 -99 -99 000 000 000 000 000 -99 -99 -99 004 001 000 000 000 000 000 000
000 000 000 000 000 000 000 000 -99 -99 -99 000 000 -99 -99 -99 -99 000 000 -99 -99 000 -99 002 000 000 000 -99 -99 -99 000
000 000 000 000 000 000 000 -99 -99 -99 -99 -99 -99 000 -99 -99 -99 -99 000 -99 -99 -99 -99 000 000 000 000 000 000 000 000
000 000 000 000 000 000 000 000 -99 -99 -99 -99 000 000 000 -99 -99 -99 000 -99 -99 000 000 000 000 000 000 000 000 000 000
000 000 000 000 000 000 000 000 -99 -99 -99 -99 000 000 000 -99 -99 000 000 -99 -99 -99 000 000 000 000 000 -99 000 000 000
000 000 000 000 000 000 000 000 000 -99 -99 -99 -99 000 000 -99 -99 000 000 -99 -99 -99 000 -99 000 000 -99 -99 000 000 000
000 000 000 000 000 000 000 000 000 -99 -99 -99 -99 -99 -99 -99 000 000 000 -99 -99 000 000 -99 -99 000 000 000 000 000 000
000 000 000 000 000 -99 -99 000 -99 -99 -99 -99 -99 -99 -99 -99 000 000 000 -99 000 000 000 -99 -99 -99 -99 -99 -99 -99 -99
000 000 000 000 000 -99 -99 -99 -99 -99 -99 -99 -99 -99 -99 -99 000 000 000 -99 000 000 000 -99 -99 -99 -99 -99 -99 -99 -99
000 000 000 000 000 000 -99 -99 -99 -99 -99 -99 -99 -99 -99 -99 000 000 -99 -99 000 000 000 -99 -99 -99 -99 -99 -99 -99 -99
000 000 000 000 000 000 000 000 000 -99 -99 -99 -99 -99 000 000 000 000 000 000 000 000 000 -99 -99 -99 -99 -99 -99 -99 -99
000 000 000 000 000 000 000 000 000 -99 -99 -99 -99 000 000 000 000 000 000 000 000 000 000 -99 -99 -99 -99 -99 -99 -99 -99
000 000 000 000 000 000 000 000 000 -99 -99 -99 -99 000 000 000 000 000 000 000 000 000 000 -99 -99 -99 -99 -99 -99 -99 -99
-99 -99 000 000 000 000 000 000 000 000 -99 -99 -99 000 000 000 000 000 000 000 000 000 -99 -99 -99 -99 -99 -99 -99 -99 000
000 -99 000 000 000 000 000 000 000 000 -99 -99 -99 -99 000 000 000 000 000 000 000 000 -99 -99 -99 -99 -99 -99 -99 -99 -99
000 000 000 000 000 000 000 000 000 -99 -99 -99 -99 -99 000 000 000 000 000 -99 000 000 -99 -99 -99 -99 -99 -99 -99 -99 000
000 000 000 000 000 000 000 000 000 000 -99 -99 -99 -99 000 000 000 000 -99 -99 000 000 -99 -99 -99 -99 -99 -99 -99 -99 000
000 000 000 000 000 000 000 000 000 000 -99 -99 -99 000 000 000 000 000 000 -99 000 000 -99 -99 -99 -99 -99 -99 -99 -99 -99
000 000 000 000 000 000 000 000 000 000 -99 -99 -99 -99 000 000 000 000 000 000 000 000 -99 000 000 -99 -99 -99 -99 -99 -99
000 000 000 000 000 000 000 000 000 -99 -99 -99 -99 -99 000 000 000 000 000 000 -99 -99 000 000 000 -99 -99 000 000 -99 000
002 000 000 000 000 000 000 000 000 -99 -99 -99 -99 000 -99 000 000 000 000 -99 -99 -99 000 000 000 -99 -99 000 000 000 000
014 001 000 000 000 000 001 000 000 -99 -99 -99 -99 000 000 000 000 000 000 -99 -99 000 000 000 000 000 -99 000 000 000 000
009 001 000 000 000 002 002 001 000 000 000 -99 000 000 000 000 000 000 000 000 000 000 000 000 000 000 -99 000 000 000 000
005 003 002 000 002 033 006 005 000 000 000 000 000 000 000 000 000 000 000 000 000 000 -99 000 000 000 000 000 000 001 000
004 009 005 001 008 022 005 006 002 004 001 003 002 002 000 000 000 000 000 000 000 000 000 000 000 000 000 000 001 004 005
016 015 004 002 009 031 009 004 005 015 008 013 022 004 000 000 000 000 000 -99 000 000 000 000 000 000 000 000 006 006 006
012 008 005 006 010 013 005 006 031 024 024 039 011 003 000 000 000 000 000 000 000 000 000 -99 000 000 000 000 006 018 008
004 005 005 005 008 010 007 016 031 023 056 014 014 003 004 000 000 000 000 000 000 000 000 000 -99 000 000 000 004 019 006
008 003 002 006 005 005 006 043 021 020 023 025 021 021 017 000 000 000 000 000 000 000 000 000 -99 000 000 000 002 008 012
001 002 002 004 001 002 005 025 015 017 022 042 033 039 007 000 000 000 000 001 001 000 000 000 000 -99 -99 000 001 006 009
000 001 001 001 002 001 003 004 011 016 021 038 031 031 007 004 001 001 000 002 001 000 000 000 000 000 -99 000 001 009 006
000 000 000 000 001 000 002 003 009 018 022 046 024 016 010 012 006 002 000 001 000 000 000 -99 000 -99 -99 000 002 008 008
000 000 000 000 000 000 001 006 009 010 014 023 024 017 018 025 012 004 000 000 000 000 000 000 000 -99 000 000 002 005 -99
000 000 000 000 000 000 002 002 003 005 009 020 022 023 022 022 009 001 000 000 000 000 -99 000 000 -99 000 000 -99 -99 -99
000 000 000 000 001 001 001 002 005 006 009 013 031 046 025 018 004 000 000 000 000 000 000 000 000 000 000 -99 -99 -99 -99
002 000 000 002 000 002 009 019 010 005 007 008 034 035 042 033 004 000 000 000 000 000 000 000 000 000 000 -99 -99 -99 -99
002 000 002 004 006 018 017 028 004 002 001 013 046 039 034 030 002 000 -99 000 000 -99 000 000 000 000 000 -99 -99 -99 -99
001 002 003 004 017 034 011 006 000 000 002 025 050 024 018 009 001 000 000 000 000 -99 -99 -99 000 -99 -99 -99 -99 -99 -99
005 003 003 010 044 037 006 001 000 000 009 029 026 010 003 002 000 000 000 000 -99 -99 -99 -99 -99 -99 -99 -99 -99 -99 -99
003 001 007 014 039 020 002 000 000 001 006 005 004 001 001 000 000 000 000 000 -99 -99 -99 -99 -99 -99 -99 -99 -99 -99 -99
000 000 002 012 011 004 001 000 000 002 001 000 000 000 000 -99 -99 000 000 -99 -99 -99 -99 -99 -99 -99 -99 -99 -99 -99 -99
000 000 000 000 002 002 001 -99 000 001 000 000 000 000 -99 -99 -99 -99 -99 -99 -99 -99 -99 -99 -99 -99 -99 -99 -99 -99 -99
000 -99 000 001 001 000 -99 -99 000 000 000 -99 -99 -99 -99 000 000 -99 -99 -99 -99 -99 -99 -99 -99 -99 -99 -99 -99 -99 -99
